data/CVRPLIB/Vrp-Set-XML100/instances/XML100_2312_03.vrp
NAME : XML100_2312_03
COMMENT : Generated by Queiroga, Sadykov, Uchoa, and Vidal (2021)
TYPE : CVRP
DIMENSION : 101
EDGE_WEIGHT_TYPE : EUC_2D
CAPACITY : 5
NODE_COORD_SECTION
1    500  500 
2    597  761 
3    694  281 
4    205  503 
5    802  841 
6    712  801 
7    773  836 
8    706  906 
9    407  462 
10   723  825 
11   535  685 
12   180  561 
13   452  830 
14   485  457 
15   535  581 
16   660  353 
17   653  764 
18   296  228 
19   698  757 
20   918  215 
21   726  940 
22   401  482 
23   468  970 
24   58   709 
25   155  593 
26   431  563 
27   482  530 
28   797  937 
29   827  876 
30   289  459 
31   44   212 
32   498  345 
33   445  489 
34   13   591 
35   707  562 
36   745  837 
37   94   409 
38   894  72  
39   538  292 
40   841  996 
41   416  553 
42   441  213 
43   331  234 
44   235  935 
45   476  150 
46   410  265 
47   380  506 
48   499  645 
49   410  814 
50   367  375 
51   804  594 
52   628  892 
53   507  804 
54   653  426 
55   361  219 
56   387  585 
57   491  468 
58   997  710 
59   355  663 
60   688  611 
61   732  438 
62   203  160 
63   663  277 
64   424  484 
65   644  749 
66   12   852 
67   20   787 
68   281  367 
69   775  706 
70   780  309 
71   787  550 
72   49   555 
73   232  209 
74   768  894 
75   806  147 
76   741  679 
77   624  740 
78   472  474 
79   423  970 
80   716  848 
81   496  35  
82   338  475 
83   478  529 
84   638  528 
85   162  569 
86   755  757 
87   407  555 
88   209  65  
89   628  779 
90   161  815 
91   390  450 
92   350  159 
93   197  853 
94   188  667 
95   584  614 
96   390  882 
97   727  746 
98   380  444 
99   350  630 
100  745  766 
101  735  609 
DEMAND_SECTION
1    0   
2    1   
3    1   
4    1   
5    1   
6    1   
7    1   
8    1   
9    1   
10   1   
11   1   
12   1   
13   1   
14   1   
15   1   
16   1   
17   1   
18   1   
19   1   
20   1   
21   1   
22   1   
23   1   
24   1   
25   1   
26   1   
27   1   
28   1   
29   1   
30   1   
31   1   
32   1   
33   1   
34   1   
35   1   
36   1   
37   1   
38   1   
39   1   
40   1   
41   1   
42   1   
43   1   
44   1   
45   1   
46   1   
47   1   
48   1   
49   1   
50   1   
51   1   
52   1   
53   1   
54   1   
55   1   
56   1   
57   1   
58   1   
59   1   
60   1   
61   1   
62   1   
63   1   
64   1   
65   1   
66   1   
67   1   
68   1   
69   1   
70   1   
71   1   
72   1   
73   1   
74   1   
75   1   
76   1   
77   1   
78   1   
79   1   
80   1   
81   1   
82   1   
83   1   
84   1   
85   1   
86   1   
87   1   
88   1   
89   1   
90   1   
91   1   
92   1   
93   1   
94   1   
95   1   
96   1   
97   1   
98   1   
99   1   
100  1   
101  1   
DEPOT_SECTION
1
-1
EOF
