data/CVRPLIB/Vrp-Set-XML100/solutions/XML100_2312_03.sol
Route #1: 56 13 77 32 82
Route #2: 76 64 16 88 1
Route #3: 71 33 23 66 65
Route #4: 46 81 29 67 49
Route #5: 8 90 97 21 63
Route #6: 14 94 10 47 26
Route #7: 59 100 50 70 34
Route #8: 35 6 4 28 57
Route #9: 7 20 39 27 73
Route #10: 42 17 91 54 45
Route #11: 31 41 44 80 38
Route #12: 74 37 19 69 60
Route #13: 72 61 87 30 36
Route #14: 93 24 84 11 3
Route #15: 25 98 55 86 40
Route #16: 48 43 92 89 58
Route #17: 52 22 78 95 12
Route #18: 75 68 85 99 96
Route #19: 62 2 15 53 83
Route #20: 18 5 9 79 51
Cost 16981
